
Gurobi 8.1.1 (win64, Python) logging started 06/01/19 20:46:33

Academic license - for non-commercial use only

Gurobi 8.1.1 (win64, Python) logging started 06/02/19 01:10:25

Academic license - for non-commercial use only
